NAME : berlin52.tsp.opt.tour
TYPE : TOUR
Dimension: 52
TOUR_SECTION
46
1
22
49
32
36
35
34
39
40
38
37
48
24
5
15
6
4
25
12
28
27
26
47
13
14
52
11
51
33
43
10
9
8
41
19
45
3
18
31
21
23
20
50
16
44
29
30
42
7
2
17
